\ LP format - for model browsing. Use MPS format to capture full model detail.
Minimize
  0 B18(0) + 0 B20(0) + 0 B23(0) + 0 B26(0) + 0 B28(0) + 0 B30(0) + 0 B36(0)
   + 0 B38(0) + 0 B42(0) + 0 B45(0) + 0 B46(0) + 0 B47(0) + 0 B48(0)
   + 0 B49(0) + 0 B54(0) + 0 B55(0) + 0 B56(0) + 0 B57(0) + 0 B58(0)
   + 0 B63(0) + 0 B64(0) + 0 B65(0) + 0 B68(0) + 0 B69(0) + 0 B72(0)
   + 0 B73(0) + 0 B74(0) + 0 B75(0) + 0 B76(0) + 0 B77(0) + 0 B78(0)
   + 0 B79(0) + 0 B80(0) + 0 B81(0) + 0 B82(0) + 0 B83(0) + 0 B84(0)
   + 0 B85(0) + 0 B86(0) + 0 B87(0) + 0 B88(0) + 0 B89(0) + 0 B90(0)
   + 0 B91(0) + 0 B92(0) + 0 B93(0) + 0 B94(0) + 0 B95(0) + 0 B96(0)
   + 0 B97(0) + 0 B98(0) + I117(1)
Subject To
 c0: B0(8) + B1(14) = 1
 c1: B2(14) + B3(15) = 1
 c2: B4(14) + B5(11) = 1
 c3: B6(7) + B7(13) = 1
 c4: B8(14) + B9(12) = 1
 c5: B10(14) + B11(13) = 1
 c6: B12(8) + B13(10) = 1
 c7: B14(11) + B15(10) = 1
 c8: B16(11) + B17(10) = 1
 c9: - 17 B0(8) - 25 B1(14) - I99(9) - I100(15) + I101(17) + I102(17) >= 0
 c10: - 17 B0(8) - 1.000000025e+09 B1(14) - 1e+09 B3(15) - I99(9)
   - I100(15) + I101(17) + I102(17) >= -1.999999993e+09
 c11: - 40 B2(14) - 30 B3(15) - I101(17) - I102(17) + I103(16) + I104(14)
   >= 0
 c12: - 1.00000004e+09 B2(14) - 30 B3(15) - 1e+09 B4(14) - I101(17)
   - I102(17) + I103(16) + I104(14) >= -1.999999995e+09
 c13: - 30 B6(7) - 50 B7(13) - I105(8) - I106(14) + I107(16) + I108(14)
   >= 0
 c14: - 55 B8(14) - 66 B9(12) - I107(16) - I108(14) + I109(16) + I110(16)
   >= 0
 c15: - 1.000000055e+09 B8(14) - 66 B9(12) - 1e+09 B10(14) - I107(16)
   - I108(14) + I109(16) + I110(16) >= -1.999999993e+09
 c16: - 56 B12(8) - 62 B13(10) - I111(9) - I112(11) + I113(13) + I114(13)
   >= 0
 c17: - 56 B12(8) - 1.000000062e+09 B13(10) - 1e+09 B14(11) - I111(9)
   - I112(11) + I113(13) + I114(13) >= -1.999999995e+09
 c18: - 70 B14(11) - 80 B15(10) - I113(13) - I114(13) + I115(14) + I116(12)
   >= 0
 c19: - 70 B14(11) - 1.00000008e+09 B15(10) - 1e+09 B17(10) - I113(13)
   - I114(13) + I115(14) + I116(12) >= -1.999999995e+09
 c20: - 1e+09 B0(8) + I99(9) <= 0
 c21: - 1e+09 B1(14) + I100(15) <= 0
 c22: - 1e+09 B2(14) + I101(17) <= 0
 c23: - 1e+09 B3(15) + I102(17) <= 0
 c24: - 1e+09 B4(14) + I103(16) <= 0
 c25: - 1e+09 B5(11) + I104(14) <= 0
 c26: - 1e+09 B6(7) + I105(8) <= 0
 c27: - 1e+09 B7(13) + I106(14) <= 0
 c28: - 1e+09 B8(14) + I107(16) <= 0
 c29: - 1e+09 B9(12) + I108(14) <= 0
 c30: - 1e+09 B10(14) + I109(16) <= 0
 c31: - 1e+09 B11(13) + I110(16) <= 0
 c32: - 1e+09 B12(8) + I111(9) <= 0
 c33: - 1e+09 B13(10) + I112(11) <= 0
 c34: - 1e+09 B14(11) + I113(13) <= 0
 c35: - 1e+09 B15(10) + I114(13) <= 0
 c36: - 1e+09 B16(11) + I115(14) <= 0
 c37: - 1e+09 B17(10) + I116(12) <= 0
 c38: - 1e+09 B1(14) - 1e+09 B3(15) - 1e+09 B19(2) + I100(15) - I102(17)
   >= -2.999999961e+09
 c39: - 1e+09 B1(14) - 1e+09 B3(15) + 1e+09 B19(2) - I100(15) + I102(17)
   >= -1.999999968e+09
 c40: - 1e+09 B0(8) - 1e+09 B6(7) - 1e+09 B21(2) + I99(9) - I105(8)
   >= -2.999999964e+09
 c41: - 1e+09 B0(8) - 1e+09 B6(7) + 1e+09 B21(2) - I99(9) + I105(8)
   >= -1.999999979e+09
 c42: - 1e+09 B1(14) - 1e+09 B9(12) - 1e+09 B22(2) + I100(15) - I108(14)
   >= -2.999999928e+09
 c43: - 1e+09 B1(14) - 1e+09 B9(12) + 1e+09 B22(2) - I100(15) + I108(14)
   >= -1.999999968e+09
 c44: - 1e+09 B0(8) - 1e+09 B12(8) - 1e+09 B24(4) + I99(9) - I111(9)
   >= -2.99999994e+09
 c45: - 1e+09 B0(8) - 1e+09 B12(8) + 1e+09 B24(4) - I99(9) + I111(9)
   >= -1.999999977e+09
 c46: - 1e+09 B1(14) - 1e+09 B13(10) - 1e+09 B24(4) + I100(15) - I112(11)
   >= -2.999999929e+09
 c47: - 1e+09 B1(14) - 1e+09 B13(10) + 1e+09 B24(4) - I100(15) + I112(11)
   >= -1.999999968e+09
 c48: - 1e+09 B1(14) - 1e+09 B14(11) - 1e+09 B25(2) + I100(15) - I113(13)
   >= -2.999999925e+09
 c49: - 1e+09 B1(14) - 1e+09 B14(11) + 1e+09 B25(2) - I100(15) + I113(13)
   >= -1.99999997e+09
 c50: - 1e+09 B1(14) - 1e+09 B3(15) - 1e+09 B27(2) - I100(15) + I102(17)
   >= -2.999999968e+09
 c51: - 1e+09 B1(14) - 1e+09 B3(15) + 1e+09 B27(2) + I100(15) - I102(17)
   >= -1.999999961e+09
 c52: - 1e+09 B2(14) - 1e+09 B4(14) - 1e+09 B29(2) + I101(17) - I103(16)
   >= -2.999999844e+09
 c53: - 1e+09 B2(14) - 1e+09 B4(14) + 1e+09 B29(2) - I101(17) + I103(16)
   >= -1.999999955e+09
 c54: - 1e+09 B3(15) - 1e+09 B9(12) - 1e+09 B31(4) + I102(17) - I108(14)
   >= -2.999999929e+09
 c55: - 1e+09 B3(15) - 1e+09 B9(12) + 1e+09 B31(4) - I102(17) + I108(14)
   >= -1.999999961e+09
 c56: - 1e+09 B2(14) - 1e+09 B8(14) - 1e+09 B31(4) + I101(17) - I107(16)
   >= -2.999999937e+09
 c57: - 1e+09 B2(14) - 1e+09 B8(14) + 1e+09 B31(4) - I101(17) + I107(16)
   >= -1.999999952e+09
 c58: - 1e+09 B2(14) - 1e+09 B10(14) - 1e+09 B32(2) + I101(17) - I109(16)
   >= -2.999999915e+09
 c59: - 1e+09 B2(14) - 1e+09 B10(14) + 1e+09 B32(2) - I101(17) + I109(16)
   >= -1.999999955e+09
 c60: - 1e+09 B3(15) - 1e+09 B13(10) - 1e+09 B33(2) + I102(17) - I112(11)
   >= -2.999999931e+09
 c61: - 1e+09 B3(15) - 1e+09 B13(10) + 1e+09 B33(2) - I102(17) + I112(11)
   >= -1.999999965e+09
 c62: - 1e+09 B3(15) - 1e+09 B14(11) - 1e+09 B34(2) + I102(17) - I113(13)
   >= -2.999999923e+09
 c63: - 1e+09 B3(15) - 1e+09 B14(11) + 1e+09 B34(2) - I102(17) + I113(13)
   >= -1.999999964e+09
 c64: - 1e+09 B2(14) - 1e+09 B16(11) - 1e+09 B35(2) + I101(17) - I115(14)
   >= -2.999999901e+09
 c65: - 1e+09 B2(14) - 1e+09 B16(11) + 1e+09 B35(2) - I101(17) + I115(14)
   >= -1.999999954e+09
 c66: - 1e+09 B2(14) - 1e+09 B4(14) - 1e+09 B37(2) - I101(17) + I103(16)
   >= -2.999999955e+09
 c67: - 1e+09 B2(14) - 1e+09 B4(14) + 1e+09 B37(2) + I101(17) - I103(16)
   >= -1.999999844e+09
 c68: - 1e+09 B5(11) - 1e+09 B7(13) - 1e+09 B39(2) + I104(14) - I106(14)
   >= -2.999999944e+09
 c69: - 1e+09 B5(11) - 1e+09 B7(13) + 1e+09 B39(2) - I104(14) + I106(14)
   >= -1.999999832e+09
 c70: - 1e+09 B4(14) - 1e+09 B8(14) - 1e+09 B40(2) + I103(16) - I107(16)
   >= -2.999999937e+09
 c71: - 1e+09 B4(14) - 1e+09 B8(14) + 1e+09 B40(2) - I103(16) + I107(16)
   >= -1.999999843e+09
 c72: - 1e+09 B5(11) - 1e+09 B11(13) - 1e+09 B41(4) + I104(14) - I110(16)
   >= -2.999999929e+09
 c73: - 1e+09 B5(11) - 1e+09 B11(13) + 1e+09 B41(4) - I104(14) + I110(16)
   >= -1.999999834e+09
 c74: - 1e+09 B4(14) - 1e+09 B10(14) - 1e+09 B41(4) + I103(16) - I109(16)
   >= -2.999999915e+09
 c75: - 1e+09 B4(14) - 1e+09 B10(14) + 1e+09 B41(4) - I103(16) + I109(16)
   >= -1.999999843e+09
 c76: - 1e+09 B5(11) - 1e+09 B15(10) - 1e+09 B43(2) + I104(14) - I114(13)
   >= -2.999999913e+09
 c77: - 1e+09 B5(11) - 1e+09 B15(10) + 1e+09 B43(2) - I104(14) + I114(13)
   >= -1.999999833e+09
 c78: - 1e+09 B5(11) - 1e+09 B17(10) - 1e+09 B44(4) + I104(14) - I116(12)
   >= -2.999999892e+09
 c79: - 1e+09 B5(11) - 1e+09 B17(10) + 1e+09 B44(4) - I104(14) + I116(12)
   >= -1.999999834e+09
 c80: - 1e+09 B4(14) - 1e+09 B16(11) - 1e+09 B44(4) + I103(16) - I115(14)
   >= -2.999999905e+09
 c81: - 1e+09 B4(14) - 1e+09 B16(11) + 1e+09 B44(4) - I103(16) + I115(14)
   >= -1.999999842e+09
 c82: - 1e+09 B7(13) - 1e+09 B11(13) - 1e+09 B50(2) + I106(14) - I110(16)
   >= -2.999999928e+09
 c83: - 1e+09 B7(13) - 1e+09 B11(13) + 1e+09 B50(2) - I106(14) + I110(16)
   >= -1.999999942e+09
 c84: - 1e+09 B6(7) - 1e+09 B12(8) - 1e+09 B51(2) + I105(8) - I111(9)
   >= -2.999999939e+09
 c85: - 1e+09 B6(7) - 1e+09 B12(8) + 1e+09 B51(2) - I105(8) + I111(9)
   >= -1.999999964e+09
 c86: - 1e+09 B7(13) - 1e+09 B15(10) - 1e+09 B52(2) + I106(14) - I114(13)
   >= -2.999999911e+09
 c87: - 1e+09 B7(13) - 1e+09 B15(10) + 1e+09 B52(2) - I106(14) + I114(13)
   >= -1.999999943e+09
 c88: - 1e+09 B7(13) - 1e+09 B17(10) - 1e+09 B53(2) + I106(14) - I116(12)
   >= -2.999999895e+09
 c89: - 1e+09 B7(13) - 1e+09 B17(10) + 1e+09 B53(2) - I106(14) + I116(12)
   >= -1.999999945e+09
 c90: - 1e+09 B8(14) - 1e+09 B10(14) - 1e+09 B59(2) + I107(16) - I109(16)
   >= -2.999999916e+09
 c91: - 1e+09 B8(14) - 1e+09 B10(14) + 1e+09 B59(2) - I107(16) + I109(16)
   >= -1.999999938e+09
 c92: - 1e+09 B9(12) - 1e+09 B13(10) - 1e+09 B60(2) + I108(14) - I112(11)
   >= -2.99999993e+09
 c93: - 1e+09 B9(12) - 1e+09 B13(10) + 1e+09 B60(2) - I108(14) + I112(11)
   >= -1.999999928e+09
 c94: - 1e+09 B9(12) - 1e+09 B14(11) - 1e+09 B61(2) + I108(14) - I113(13)
   >= -2.999999924e+09
 c95: - 1e+09 B9(12) - 1e+09 B14(11) + 1e+09 B61(2) - I108(14) + I113(13)
   >= -1.999999927e+09
 c96: - 1e+09 B8(14) - 1e+09 B16(11) - 1e+09 B62(2) + I107(16) - I115(14)
   >= -2.999999904e+09
 c97: - 1e+09 B8(14) - 1e+09 B16(11) + 1e+09 B62(2) - I107(16) + I115(14)
   >= -1.99999994e+09
 c98: - 1e+09 B7(13) - 1e+09 B11(13) - 1e+09 B66(2) - I106(14) + I110(16)
   >= -2.999999942e+09
 c99: - 1e+09 B7(13) - 1e+09 B11(13) + 1e+09 B66(2) + I106(14) - I110(16)
   >= -1.999999928e+09
 c100: - 1e+09 B8(14) - 1e+09 B10(14) - 1e+09 B67(2) - I107(16) + I109(16)
   >= -2.999999938e+09
 c101: - 1e+09 B8(14) - 1e+09 B10(14) + 1e+09 B67(2) + I107(16) - I109(16)
   >= -1.999999916e+09
 c102: - 1e+09 B11(13) - 1e+09 B15(10) - 1e+09 B70(2) + I110(16) - I114(13)
   >= -2.999999912e+09
 c103: - 1e+09 B11(13) - 1e+09 B15(10) + 1e+09 B70(2) - I110(16) + I114(13)
   >= -1.999999928e+09
 c104: - 1e+09 B11(13) - 1e+09 B17(10) - 1e+09 B71(4) + I110(16) - I116(12)
   >= -2.999999892e+09
 c105: - 1e+09 B11(13) - 1e+09 B17(10) + 1e+09 B71(4) - I110(16) + I116(12)
   >= -1.999999926e+09
 c106: - 1e+09 B10(14) - 1e+09 B16(11) - 1e+09 B71(4) + I109(16) - I115(14)
   >= -2.999999904e+09
 c107: - 1e+09 B10(14) - 1e+09 B16(11) + 1e+09 B71(4) - I109(16) + I115(14)
   >= -1.999999915e+09
 c108: I99(9) >= 0
 c109: I99(9) >= 0
 c110: I100(15) >= 0
 c111: I100(15) >= 0
 c112: I101(17) >= 0
 c113: I101(17) >= 0
 c114: I102(17) >= 0
 c115: I102(17) >= 0
 c116: I103(16) >= 0
 c117: I103(16) >= 0
 c118: I104(14) >= 0
 c119: I104(14) >= 0
 c120: I105(8) >= 0
 c121: I105(8) >= 0
 c122: I106(14) >= 0
 c123: I106(14) >= 0
 c124: I107(16) >= 0
 c125: I107(16) >= 0
 c126: I108(14) >= 0
 c127: I108(14) >= 0
 c128: I109(16) >= 0
 c129: I109(16) >= 0
 c130: I110(16) >= 0
 c131: I110(16) >= 0
 c132: I111(9) >= 0
 c133: I111(9) >= 0
 c134: I112(11) >= 0
 c135: I112(11) >= 0
 c136: I113(13) >= 0
 c137: I113(13) >= 0
 c138: I114(13) >= 0
 c139: I114(13) >= 0
 c140: I115(14) >= 0
 c141: I115(14) >= 0
 c142: I116(12) >= 0
 c143: I116(12) >= 0
 c144: - 150 B4(14) - 160 B5(11) - 78 B10(14) - 65 B11(13) - 90 B16(11)
   - 100 B17(10) - I103(16) - I104(14) - I109(16) - I110(16) - I115(14)
   - I116(12) + I117(1) = 0
Bounds
Binaries
 B0(8) B1(14) B2(14) B3(15) B4(14) B5(11) B6(7) B7(13) B8(14) B9(12)
 B10(14) B11(13) B12(8) B13(10) B14(11) B15(10) B16(11) B17(10) B18(0)
 B19(2) B20(0) B21(2) B22(2) B23(0) B24(4) B25(2) B26(0) B27(2) B28(0)
 B29(2) B30(0) B31(4) B32(2) B33(2) B34(2) B35(2) B36(0) B37(2) B38(0)
 B39(2) B40(2) B41(4) B42(0) B43(2) B44(4) B45(0) B46(0) B47(0) B48(0)
 B49(0) B50(2) B51(2) B52(2) B53(2) B54(0) B55(0) B56(0) B57(0) B58(0)
 B59(2) B60(2) B61(2) B62(2) B63(0) B64(0) B65(0) B66(2) B67(2) B68(0)
 B69(0) B70(2) B71(4) B72(0) B73(0) B74(0) B75(0) B76(0) B77(0) B78(0)
 B79(0) B80(0) B81(0) B82(0) B83(0) B84(0) B85(0) B86(0) B87(0) B88(0)
 B89(0) B90(0) B91(0) B92(0) B93(0) B94(0) B95(0) B96(0) B97(0) B98(0)
Generals
 I99(9) I100(15) I101(17) I102(17) I103(16) I104(14) I105(8) I106(14)
 I107(16) I108(14) I109(16) I110(16) I111(9) I112(11) I113(13) I114(13)
 I115(14) I116(12) I117(1)
End
